\ This file has been generated by DOcplex
\ ENCODING=ISO-8859-1
\Problem name: Qrandom442_6.lp

Minimize
 obj: - 601776 x0 - 300888 x1 - 150444 x2 - 600260 x3 - 300130 x4 - 150065 x5 +
      [ 345024 x0^2 + 345024 x0*x1 + 172512 x0*x2 + 688768 x0*x3 + 344384 x0*x4
      + 172192 x0*x5 + 86256 x1^2 + 86256 x1*x2 + 344384 x1*x3 + 172192 x1*x4
      + 86096 x1*x5 + 21564 x2^2 + 172192 x2*x3 + 86096 x2*x4 + 43048 x2*x5
      + 346080 x3^2 + 346080 x3*x4 + 173040 x3*x5 + 86520 x4^2 + 86520 x4*x5
      + 21630 x5^2 ]/2 + 526211
Subject To

Bounds
 0 <= x0 <= 1
 0 <= x1 <= 1
 0 <= x2 <= 1
 0 <= x3 <= 1
 0 <= x4 <= 1
 0 <= x5 <= 1

Binaries
 x0 x1 x2 x3 x4 x5
End
